(set-info :smt-lib-version 2.6)
(set-logic QF_S)
(set-info :source |
Generated by: Andrew Reynolds
Generated on: 2020-02-27
Generator: CVC4
Application: Testing of string solvers
Target solver: CVC4
|)
(set-info :license "https://creativecommons.org/licenses/by/4.0/")
(set-info :category "random")
(set-info :status unknown)
(declare-fun x () String)
(assert (let ((_let_0 (re.* re.allchar ))) (let ((_let_1 (str.++ "B" (str.++ "B" "A")))) (and (str.in_re x (re.++ _let_0 re.allchar  _let_0 (str.to_re (str.++ "B" (str.++ "A" (str.++ "B" "B")))) _let_0 re.allchar  _let_0)) (not (= (str.in_re x (re.++ _let_0 re.allchar  _let_0 (str.to_re (str.++ "A" _let_1)) _let_0 re.allchar  _let_0)) (str.in_re x (re.++ _let_0 re.allchar  _let_0 re.allchar  _let_0 (re.++ (str.to_re _let_1) re.allchar ) _let_0))))))))
(check-sat)
(exit)
